Minimize
 obj: 0 X_0_1
Subject To
 out_0:
  + 1 X_0_1 + 1 X_0_2 + 1 X_0_3 + 1 X_0_4 + 1 X_0_5 + 1 X_0_6 + 1 X_0_7 + 1 X_0_8
  + 1 X_0_9
  = 1
 in_0:
  + 1 X_1_0 + 1 X_2_0 + 1 X_3_0 + 1 X_4_0 + 1 X_5_0 + 1 X_6_0 + 1 X_7_0 + 1 X_8_0
  + 1 X_9_0
  = 1
 out_1:
  + 1 X_1_0 + 1 X_1_2 + 1 X_1_3 + 1 X_1_4 + 1 X_1_5 + 1 X_1_6 + 1 X_1_7 + 1 X_1_8
  + 1 X_1_9
  = 1
 in_1:
  + 1 X_0_1 + 1 X_2_1 + 1 X_3_1 + 1 X_4_1 + 1 X_5_1 + 1 X_6_1 + 1 X_7_1 + 1 X_8_1
  + 1 X_9_1
  = 1
 out_2:
  + 1 X_2_0 + 1 X_2_1 + 1 X_2_3 + 1 X_2_4 + 1 X_2_5 + 1 X_2_6 + 1 X_2_7 + 1 X_2_8
  + 1 X_2_9
  = 1
 in_2:
  + 1 X_0_2 + 1 X_1_2 + 1 X_3_2 + 1 X_4_2 + 1 X_5_2 + 1 X_6_2 + 1 X_7_2 + 1 X_8_2
  + 1 X_9_2
  = 1
 out_3:
  + 1 X_3_0 + 1 X_3_1 + 1 X_3_2 + 1 X_3_4 + 1 X_3_5 + 1 X_3_6 + 1 X_3_7 + 1 X_3_8
  + 1 X_3_9
  = 1
 in_3:
  + 1 X_0_3 + 1 X_1_3 + 1 X_2_3 + 1 X_4_3 + 1 X_5_3 + 1 X_6_3 + 1 X_7_3 + 1 X_8_3
  + 1 X_9_3
  = 1
 out_4:
  + 1 X_4_0 + 1 X_4_1 + 1 X_4_2 + 1 X_4_3 + 1 X_4_5 + 1 X_4_6 + 1 X_4_7 + 1 X_4_8
  + 1 X_4_9
  = 1
 in_4:
  + 1 X_0_4 + 1 X_1_4 + 1 X_2_4 + 1 X_3_4 + 1 X_5_4 + 1 X_6_4 + 1 X_7_4 + 1 X_8_4
  + 1 X_9_4
  = 1
 out_5:
  + 1 X_5_0 + 1 X_5_1 + 1 X_5_2 + 1 X_5_3 + 1 X_5_4 + 1 X_5_6 + 1 X_5_7 + 1 X_5_8
  + 1 X_5_9
  = 1
 in_5:
  + 1 X_0_5 + 1 X_1_5 + 1 X_2_5 + 1 X_3_5 + 1 X_4_5 + 1 X_6_5 + 1 X_7_5 + 1 X_8_5
  + 1 X_9_5
  = 1
 out_6:
  + 1 X_6_0 + 1 X_6_1 + 1 X_6_2 + 1 X_6_3 + 1 X_6_4 + 1 X_6_5 + 1 X_6_7 + 1 X_6_8
  + 1 X_6_9
  = 1
 in_6:
  + 1 X_0_6 + 1 X_1_6 + 1 X_2_6 + 1 X_3_6 + 1 X_4_6 + 1 X_5_6 + 1 X_7_6 + 1 X_8_6
  + 1 X_9_6
  = 1
 out_7:
  + 1 X_7_0 + 1 X_7_1 + 1 X_7_2 + 1 X_7_3 + 1 X_7_4 + 1 X_7_5 + 1 X_7_6 + 1 X_7_8
  + 1 X_7_9
  = 1
 in_7:
  + 1 X_0_7 + 1 X_1_7 + 1 X_2_7 + 1 X_3_7 + 1 X_4_7 + 1 X_5_7 + 1 X_6_7 + 1 X_8_7
  + 1 X_9_7
  = 1
 out_8:
  + 1 X_8_0 + 1 X_8_1 + 1 X_8_2 + 1 X_8_3 + 1 X_8_4 + 1 X_8_5 + 1 X_8_6 + 1 X_8_7
  + 1 X_8_9
  = 1
 in_8:
  + 1 X_0_8 + 1 X_1_8 + 1 X_2_8 + 1 X_3_8 + 1 X_4_8 + 1 X_5_8 + 1 X_6_8 + 1 X_7_8
  + 1 X_9_8
  = 1
 out_9:
  + 1 X_9_0 + 1 X_9_1 + 1 X_9_2 + 1 X_9_3 + 1 X_9_4 + 1 X_9_5 + 1 X_9_6 + 1 X_9_7
  + 1 X_9_8
  = 1
 in_9:
  + 1 X_0_9 + 1 X_1_9 + 1 X_2_9 + 1 X_3_9 + 1 X_4_9 + 1 X_5_9 + 1 X_6_9 + 1 X_7_9
  + 1 X_8_9
  = 1
 mtz_1_2:
  + 1 U1 - 1 U2 + 9 X_1_2
  <= 8
 mtz_1_3:
  + 1 U1 - 1 U3 + 9 X_1_3
  <= 8
 mtz_1_4:
  + 1 U1 - 1 U4 + 9 X_1_4
  <= 8
 mtz_1_5:
  + 1 U1 - 1 U5 + 9 X_1_5
  <= 8
 mtz_1_6:
  + 1 U1 - 1 U6 + 9 X_1_6
  <= 8
 mtz_1_7:
  + 1 U1 - 1 U7 + 9 X_1_7
  <= 8
 mtz_1_8:
  + 1 U1 - 1 U8 + 9 X_1_8
  <= 8
 mtz_1_9:
  + 1 U1 - 1 U9 + 9 X_1_9
  <= 8
 mtz_2_1:
  + 1 U2 - 1 U1 + 9 X_2_1
  <= 8
 mtz_2_3:
  + 1 U2 - 1 U3 + 9 X_2_3
  <= 8
 mtz_2_4:
  + 1 U2 - 1 U4 + 9 X_2_4
  <= 8
 mtz_2_5:
  + 1 U2 - 1 U5 + 9 X_2_5
  <= 8
 mtz_2_6:
  + 1 U2 - 1 U6 + 9 X_2_6
  <= 8
 mtz_2_7:
  + 1 U2 - 1 U7 + 9 X_2_7
  <= 8
 mtz_2_8:
  + 1 U2 - 1 U8 + 9 X_2_8
  <= 8
 mtz_2_9:
  + 1 U2 - 1 U9 + 9 X_2_9
  <= 8
 mtz_3_1:
  + 1 U3 - 1 U1 + 9 X_3_1
  <= 8
 mtz_3_2:
  + 1 U3 - 1 U2 + 9 X_3_2
  <= 8
 mtz_3_4:
  + 1 U3 - 1 U4 + 9 X_3_4
  <= 8
 mtz_3_5:
  + 1 U3 - 1 U5 + 9 X_3_5
  <= 8
 mtz_3_6:
  + 1 U3 - 1 U6 + 9 X_3_6
  <= 8
 mtz_3_7:
  + 1 U3 - 1 U7 + 9 X_3_7
  <= 8
 mtz_3_8:
  + 1 U3 - 1 U8 + 9 X_3_8
  <= 8
 mtz_3_9:
  + 1 U3 - 1 U9 + 9 X_3_9
  <= 8
 mtz_4_1:
  + 1 U4 - 1 U1 + 9 X_4_1
  <= 8
 mtz_4_2:
  + 1 U4 - 1 U2 + 9 X_4_2
  <= 8
 mtz_4_3:
  + 1 U4 - 1 U3 + 9 X_4_3
  <= 8
 mtz_4_5:
  + 1 U4 - 1 U5 + 9 X_4_5
  <= 8
 mtz_4_6:
  + 1 U4 - 1 U6 + 9 X_4_6
  <= 8
 mtz_4_7:
  + 1 U4 - 1 U7 + 9 X_4_7
  <= 8
 mtz_4_8:
  + 1 U4 - 1 U8 + 9 X_4_8
  <= 8
 mtz_4_9:
  + 1 U4 - 1 U9 + 9 X_4_9
  <= 8
 mtz_5_1:
  + 1 U5 - 1 U1 + 9 X_5_1
  <= 8
 mtz_5_2:
  + 1 U5 - 1 U2 + 9 X_5_2
  <= 8
 mtz_5_3:
  + 1 U5 - 1 U3 + 9 X_5_3
  <= 8
 mtz_5_4:
  + 1 U5 - 1 U4 + 9 X_5_4
  <= 8
 mtz_5_6:
  + 1 U5 - 1 U6 + 9 X_5_6
  <= 8
 mtz_5_7:
  + 1 U5 - 1 U7 + 9 X_5_7
  <= 8
 mtz_5_8:
  + 1 U5 - 1 U8 + 9 X_5_8
  <= 8
 mtz_5_9:
  + 1 U5 - 1 U9 + 9 X_5_9
  <= 8
 mtz_6_1:
  + 1 U6 - 1 U1 + 9 X_6_1
  <= 8
 mtz_6_2:
  + 1 U6 - 1 U2 + 9 X_6_2
  <= 8
 mtz_6_3:
  + 1 U6 - 1 U3 + 9 X_6_3
  <= 8
 mtz_6_4:
  + 1 U6 - 1 U4 + 9 X_6_4
  <= 8
 mtz_6_5:
  + 1 U6 - 1 U5 + 9 X_6_5
  <= 8
 mtz_6_7:
  + 1 U6 - 1 U7 + 9 X_6_7
  <= 8
 mtz_6_8:
  + 1 U6 - 1 U8 + 9 X_6_8
  <= 8
 mtz_6_9:
  + 1 U6 - 1 U9 + 9 X_6_9
  <= 8
 mtz_7_1:
  + 1 U7 - 1 U1 + 9 X_7_1
  <= 8
 mtz_7_2:
  + 1 U7 - 1 U2 + 9 X_7_2
  <= 8
 mtz_7_3:
  + 1 U7 - 1 U3 + 9 X_7_3
  <= 8
 mtz_7_4:
  + 1 U7 - 1 U4 + 9 X_7_4
  <= 8
 mtz_7_5:
  + 1 U7 - 1 U5 + 9 X_7_5
  <= 8
 mtz_7_6:
  + 1 U7 - 1 U6 + 9 X_7_6
  <= 8
 mtz_7_8:
  + 1 U7 - 1 U8 + 9 X_7_8
  <= 8
 mtz_7_9:
  + 1 U7 - 1 U9 + 9 X_7_9
  <= 8
 mtz_8_1:
  + 1 U8 - 1 U1 + 9 X_8_1
  <= 8
 mtz_8_2:
  + 1 U8 - 1 U2 + 9 X_8_2
  <= 8
 mtz_8_3:
  + 1 U8 - 1 U3 + 9 X_8_3
  <= 8
 mtz_8_4:
  + 1 U8 - 1 U4 + 9 X_8_4
  <= 8
 mtz_8_5:
  + 1 U8 - 1 U5 + 9 X_8_5
  <= 8
 mtz_8_6:
  + 1 U8 - 1 U6 + 9 X_8_6
  <= 8
 mtz_8_7:
  + 1 U8 - 1 U7 + 9 X_8_7
  <= 8
 mtz_8_9:
  + 1 U8 - 1 U9 + 9 X_8_9
  <= 8
 mtz_9_1:
  + 1 U9 - 1 U1 + 9 X_9_1
  <= 8
 mtz_9_2:
  + 1 U9 - 1 U2 + 9 X_9_2
  <= 8
 mtz_9_3:
  + 1 U9 - 1 U3 + 9 X_9_3
  <= 8
 mtz_9_4:
  + 1 U9 - 1 U4 + 9 X_9_4
  <= 8
 mtz_9_5:
  + 1 U9 - 1 U5 + 9 X_9_5
  <= 8
 mtz_9_6:
  + 1 U9 - 1 U6 + 9 X_9_6
  <= 8
 mtz_9_7:
  + 1 U9 - 1 U7 + 9 X_9_7
  <= 8
 mtz_9_8:
  + 1 U9 - 1 U8 + 9 X_9_8
  <= 8
 obj1:
  + 557 X_0_1 + 754 X_0_2 + 747 X_0_3 + 624 X_0_4 + 736 X_0_5 + 710 X_0_6 + 504 X_0_7 + 695 X_0_8
  + 831 X_0_9 + 557 X_1_0 + 317 X_1_2 + 785 X_1_3 + 362 X_1_4 + 367 X_1_5 + 154 X_1_6 + 254 X_1_7
  + 158 X_1_8 + 559 X_1_9 + 754 X_2_0 + 317 X_2_1 + 1102 X_2_3 + 202 X_2_4 + 91 X_2_5 + 308 X_2_6
  + 572 X_2_7 + 372 X_2_8 + 843 X_2_9 + 747 X_3_0 + 785 X_3_1 + 1102 X_3_2 + 1108 X_3_4 + 1147 X_3_5
  + 840 X_3_6 + 530 X_3_7 + 777 X_3_8 + 423 X_3_9 + 624 X_4_0 + 362 X_4_1 + 202 X_4_2 + 1108 X_4_3
  + 132 X_4_5 + 432 X_4_6 + 593 X_4_7 + 481 X_4_8 + 921 X_4_9 + 736 X_5_0 + 367 X_5_1 + 91 X_5_2
  + 1147 X_5_3 + 132 X_5_4 + 387 X_5_6 + 618 X_5_7 + 447 X_5_8 + 912 X_5_9 + 710 X_6_0 + 154 X_6_1
  + 308 X_6_2 + 840 X_6_3 + 432 X_6_4 + 387 X_6_5 + 332 X_6_7 + 66 X_6_8 + 538 X_6_9 + 504 X_7_0
  + 254 X_7_1 + 572 X_7_2 + 530 X_7_3 + 593 X_7_4 + 618 X_7_5 + 332 X_7_6 + 280 X_7_8 + 367 X_7_9
  + 695 X_8_0 + 158 X_8_1 + 372 X_8_2 + 777 X_8_3 + 481 X_8_4 + 447 X_8_5 + 66 X_8_6 + 280 X_8_7
  + 472 X_8_9 + 831 X_9_0 + 559 X_9_1 + 843 X_9_2 + 423 X_9_3 + 921 X_9_4 + 912 X_9_5 + 538 X_9_6
  + 367 X_9_7 + 472 X_9_8
  <= 1
 obj2:
  + 732 X_0_1 + 764 X_0_2 + 723 X_0_3 + 591 X_0_4 + 165 X_0_5 + 263 X_0_6 + 222 X_0_7 + 350 X_0_8
  + 560 X_0_9 + 732 X_1_0 + 110 X_1_2 + 785 X_1_3 + 358 X_1_4 + 897 X_1_5 + 689 X_1_6 + 846 X_1_7
  + 442 X_1_8 + 220 X_1_9 + 764 X_2_0 + 110 X_2_1 + 889 X_2_3 + 461 X_2_4 + 929 X_2_5 + 756 X_2_6
  + 901 X_2_7 + 442 X_2_8 + 309 X_2_9 + 723 X_3_0 + 785 X_3_1 + 889 X_3_2 + 428 X_3_4 + 799 X_3_5
  + 461 X_3_6 + 598 X_3_7 + 807 X_3_8 + 590 X_3_9 + 591 X_4_0 + 358 X_4_1 + 461 X_4_2 + 428 X_4_3
  + 737 X_4_5 + 430 X_4_6 + 612 X_4_7 + 481 X_4_8 + 169 X_4_9 + 165 X_5_0 + 897 X_5_1 + 929 X_5_2
  + 799 X_5_3 + 737 X_5_4 + 349 X_5_6 + 209 X_5_7 + 507 X_5_8 + 721 X_5_9 + 263 X_6_0 + 689 X_6_1
  + 756 X_6_2 + 461 X_6_3 + 430 X_6_4 + 349 X_6_5 + 183 X_6_7 + 458 X_6_8 + 476 X_6_9 + 222 X_7_0
  + 846 X_7_1 + 901 X_7_2 + 598 X_7_3 + 612 X_7_4 + 209 X_7_5 + 183 X_7_6 + 538 X_7_8 + 642 X_7_9
  + 350 X_8_0 + 442 X_8_1 + 442 X_8_2 + 807 X_8_3 + 481 X_8_4 + 507 X_8_5 + 458 X_8_6 + 538 X_8_7
  + 355 X_8_9 + 560 X_9_0 + 220 X_9_1 + 309 X_9_2 + 590 X_9_3 + 169 X_9_4 + 721 X_9_5 + 476 X_9_6
  + 642 X_9_7 + 355 X_9_8
  <= 2
 obj3:
  + 429 X_0_1 + 180 X_0_2 + 727 X_0_3 + 738 X_0_4 + 936 X_0_5 + 609 X_0_6 + 958 X_0_7 + 625 X_0_8
  + 651 X_0_9 + 429 X_1_0 + 371 X_1_2 + 806 X_1_3 + 443 X_1_4 + 512 X_1_5 + 200 X_1_6 + 772 X_1_7
  + 223 X_1_8 + 225 X_1_9 + 180 X_2_0 + 371 X_2_1 + 568 X_2_3 + 582 X_2_4 + 839 X_2_5 + 511 X_2_6
  + 780 X_2_7 + 521 X_2_8 + 569 X_2_9 + 727 X_3_0 + 806 X_3_1 + 568 X_3_2 + 636 X_3_4 + 1054 X_3_5
  + 814 X_3_6 + 518 X_3_7 + 804 X_3_8 + 892 X_3_9 + 738 X_4_0 + 443 X_4_1 + 582 X_4_2 + 636 X_4_3
  + 425 X_4_5 + 297 X_4_6 + 356 X_4_7 + 273 X_4_8 + 358 X_4_9 + 936 X_5_0 + 512 X_5_1 + 839 X_5_2
  + 1054 X_5_3 + 425 X_5_4 + 329 X_5_6 + 730 X_5_7 + 318 X_5_8 + 287 X_5_9 + 609 X_6_0 + 200 X_6_1
  + 511 X_6_2 + 814 X_6_3 + 297 X_6_4 + 329 X_6_5 + 651 X_6_7 + 26 X_6_8 + 78 X_6_9 + 958 X_7_0
  + 772 X_7_1 + 780 X_7_2 + 518 X_7_3 + 356 X_7_4 + 730 X_7_5 + 651 X_7_6 + 628 X_7_8 + 715 X_7_9
  + 625 X_8_0 + 223 X_8_1 + 521 X_8_2 + 804 X_8_3 + 273 X_8_4 + 318 X_8_5 + 26 X_8_6 + 628 X_8_7
  + 92 X_8_9 + 651 X_9_0 + 225 X_9_1 + 569 X_9_2 + 892 X_9_3 + 358 X_9_4 + 287 X_9_5 + 78 X_9_6
  + 715 X_9_7 + 92 X_9_8
  <= 3
 obj4:
  + 529 X_0_1 + 936 X_0_2 + 1030 X_0_3 + 661 X_0_4 + 844 X_0_5 + 949 X_0_6 + 826 X_0_7 + 590 X_0_8
  + 1007 X_0_9 + 529 X_1_0 + 1038 X_1_2 + 896 X_1_3 + 861 X_1_4 + 780 X_1_5 + 852 X_1_6 + 725 X_1_7
  + 417 X_1_8 + 935 X_1_9 + 936 X_2_0 + 1038 X_2_1 + 435 X_2_3 + 289 X_2_4 + 335 X_2_5 + 367 X_2_6
  + 403 X_2_7 + 637 X_2_8 + 322 X_2_9 + 1030 X_3_0 + 896 X_3_1 + 435 X_3_2 + 581 X_3_4 + 197 X_3_5
  + 92 X_3_6 + 203 X_3_7 + 497 X_3_8 + 116 X_3_9 + 661 X_4_0 + 861 X_4_1 + 289 X_4_2 + 581 X_4_3
  + 399 X_4_5 + 490 X_4_6 + 440 X_4_7 + 520 X_4_8 + 496 X_4_9 + 844 X_5_0 + 780 X_5_1 + 335 X_5_2
  + 197 X_5_3 + 399 X_5_4 + 107 X_5_6 + 69 X_5_7 + 363 X_5_8 + 166 X_5_9 + 949 X_6_0 + 852 X_6_1
  + 367 X_6_2 + 92 X_6_3 + 490 X_6_4 + 107 X_6_5 + 131 X_6_7 + 441 X_6_8 + 87 X_6_9 + 826 X_7_0
  + 725 X_7_1 + 403 X_7_2 + 203 X_7_3 + 440 X_7_4 + 69 X_7_5 + 131 X_7_6 + 310 X_7_8 + 211 X_7_9
  + 590 X_8_0 + 417 X_8_1 + 637 X_8_2 + 497 X_8_3 + 520 X_8_4 + 363 X_8_5 + 441 X_8_6 + 310 X_8_7
  + 522 X_8_9 + 1007 X_9_0 + 935 X_9_1 + 322 X_9_2 + 116 X_9_3 + 496 X_9_4 + 166 X_9_5 + 87 X_9_6
  + 211 X_9_7 + 522 X_9_8
  <= 4
Bounds
 1 <= U1 <= 9
 1 <= U2 <= 9
 1 <= U3 <= 9
 1 <= U4 <= 9
 1 <= U5 <= 9
 1 <= U6 <= 9
 1 <= U7 <= 9
 1 <= U8 <= 9
 1 <= U9 <= 9
Binary
 X_0_1
 X_0_2
 X_0_3
 X_0_4
 X_0_5
 X_0_6
 X_0_7
 X_0_8
 X_0_9
 X_1_0
 X_1_2
 X_1_3
 X_1_4
 X_1_5
 X_1_6
 X_1_7
 X_1_8
 X_1_9
 X_2_0
 X_2_1
 X_2_3
 X_2_4
 X_2_5
 X_2_6
 X_2_7
 X_2_8
 X_2_9
 X_3_0
 X_3_1
 X_3_2
 X_3_4
 X_3_5
 X_3_6
 X_3_7
 X_3_8
 X_3_9
 X_4_0
 X_4_1
 X_4_2
 X_4_3
 X_4_5
 X_4_6
 X_4_7
 X_4_8
 X_4_9
 X_5_0
 X_5_1
 X_5_2
 X_5_3
 X_5_4
 X_5_6
 X_5_7
 X_5_8
 X_5_9
 X_6_0
 X_6_1
 X_6_2
 X_6_3
 X_6_4
 X_6_5
 X_6_7
 X_6_8
 X_6_9
 X_7_0
 X_7_1
 X_7_2
 X_7_3
 X_7_4
 X_7_5
 X_7_6
 X_7_8
 X_7_9
 X_8_0
 X_8_1
 X_8_2
 X_8_3
 X_8_4
 X_8_5
 X_8_6
 X_8_7
 X_8_9
 X_9_0
 X_9_1
 X_9_2
 X_9_3
 X_9_4
 X_9_5
 X_9_6
 X_9_7
 X_9_8
End
